Version identifier: 22.1.0.0 | 2022-03-09 | 1a383f8ce
CPXPARAM_Threads                                 1
CPXPARAM_MIP_Strategy_VariableSelect             3
CPXPARAM_TimeLimit                               599.99232647300005
Tried aggregator 1 time.
MIP Presolve eliminated 331 rows and 1264 columns.
Reduced MIP has 1893 rows, 2528 columns, and 20740 nonzeros.
Reduced MIP has 2528 binaries, 0 generals, 0 SOSs, and 0 indicators.
Presolve time = 0.03 sec. (11.77 ticks)
Probing time = 0.00 sec. (2.62 ticks)
Tried aggregator 1 time.
Detecting symmetries...
Reduced MIP has 1893 rows, 2528 columns, and 20740 nonzeros.
Reduced MIP has 2528 binaries, 0 generals, 0 SOSs, and 0 indicators.
Presolve time = 0.02 sec. (12.68 ticks)
Probing time = 0.00 sec. (2.62 ticks)
Clique table members: 1258.
MIP emphasis: balance optimality and feasibility.
MIP search method: dynamic search.
Parallel mode: none, using 1 thread.
Root relaxation solution time = 0.02 sec. (13.78 ticks)

        Nodes                                         Cuts/
   Node  Left     Objective  IInf  Best Integer    Best Bound    ItCnt     Gap

      0     0    infeasible                                        364         

Root node processing (before b&c):
  Real time             =    0.14 sec. (91.15 ticks)
Sequential b&c:
  Real time             =    0.00 sec. (0.00 ticks)
                          ------------
Total (root+branch&cut) =    0.14 sec. (91.15 ticks)
Primal:	315
Dual:	315
Status:	Optimal
Time:	0.184258
Sequence:
	0
